c ---- [ banner ] ------------------------------------------------------------
c
c Kissat SAT Solver
c 
c Copyright (c) 2021-2024 Armin Biere University of Freiburg
c Copyright (c) 2019-2021 Armin Biere Johannes Kepler University Linz
c 
c Version 4.0.1 43f02cf3e992cb44653b35e5cb26f93281552ae0
c gcc (Ubuntu 13.2.0-23ubuntu4) 13.2.0 -W -Wall -O3 -DNDEBUG
c Thu Sep 12 12:27:46 CEST 2024 Linux abryzen9 6.8.0-41-generic x86_64
c
c ---- [ parsing ] -----------------------------------------------------------
c
c opened and reading DIMACS file:
c
c   /data/artifact/AMulet2.0_artifact/exp4/cnf_compress2rs_64/64_64_U1_WT_BK_Multgen_compress2rs.cnf
c
c parsed 'p cnf 36490 141780' header
c closing input after reading 2760022 bytes (3 MB)
c finished parsing after 0.02 seconds
c
c ---- [ options ] -----------------------------------------------------------
c
c --stable=0                       (different from default '1')
c
c ---- [ solving ] -----------------------------------------------------------
c
c  seconds switched rate     size/glue tier1  binary           remaining
c         MB reductions conflicts size  tier2     irredundant
c          level restarts redundant glue  trail           variables
c
c *  0.02 11 0 0 0  0 0   0   0 0.0 0 0 0 0 0% 29398 112380 36487 100%
c (  0.04 13 0 0 0  0 0   0   0 0.0 0 0 0 0 0% 29398 112380 36487 100%
c .  0.04 13 0 0 0  0 0   0   0 0.0 0 0 0 0 0% 29394 112380 36487 100%
c c  0.12 22 0 0 0  0 0   0   0 0.0 0 0 0 0 0% 36957 97493 32705 90%
c d  0.13 22 0 0 0  0 0   0   0 0.0 0 0 0 0 0% 29393 97493 32705 90%
c =  0.17 22 0 0 0  0 0   0   0 0.0 0 0 0 0 0% 29757 97493 32444 89%
c d  0.17 22 0 0 0  0 0   0   0 0.0 0 0 0 0 0% 29235 97493 32444 89%
c f  0.25 20 0 0 0  0 0   0   0 0.0 0 0 0 0 0% 32197 92768 34207 94%
c e  0.34 27 0 0 0  0 0   0   0 0.0 0 0 0 0 0% 10248 106972 23113 63%
c )  0.34 27 0 0 0  0 0   0   0 0.0 0 0 0 0 0% 10248 106972 23113 63%
c {  0.36 29 0 0 0  0 0   0   0 0.0 0 0 2 6 0% 10248 106972 23113 63%
c -  0.50 29 130 0 1 259 30 1000 728 2.8 15 5 3 11 20% 10345 106935 23113 63%
c -  0.61 29 374 0 2 351 33 2001 1481 3.2 15 5 2 9 20% 10392 106933 23113 63%
c c  0.79 23 352 0 2 451 33 2503 1939 3.0 15 5 2 9 22% 10399 106918 23109 63%
c d  0.79 23 352 0 2 451 33 2503 1939 3.0 15 5 2 9 22% 10391 106918 23109 63%
c u  0.80 23 352 0 2 451 33 2503 1481 3.0 15 5 2 9 22% 10399 106918 23109 63%
c v  0.82 23 352 0 2 451 33 2503 1220 3.0 15 5 2 9 22% 10400 106918 23109 63%
c w  0.83 23 352 0 2 451 33 2503 1220 3.0 15 5 2 9 22% 10400 106918 23109 63%
c x  0.85 27 352 0 2 451 33 2503 1220 3.0 15 5 2 9 22% 10493 106755 23109 63%
c =  0.90 27 352 0 2 451 33 2503 1220 3.0 15 5 2 9 22% 10731 106755 22990 63%
c
c  seconds   switched   rate       size/glue tier1    binary           remaining
c         MB  reductions conflicts       size  tier2      irredundant
c           level restarts    redundant    glue   trail           variables
c
c d  0.90 27 352 0 2 451 33 2503 1220 3.0 15 5 2 9 22% 10491 106755 22990 63%
c t  0.91 27 352 0 2 451 33 2503 1220 3.0 15 5 2 9 22% 10488 106755 22990 63%
c f  0.93 27 352 0 2 451 33 2503 1220 3.0 15 5 2 9 22% 11150 105476 23604 65%
c u  0.95 29 352 0 2 451 33 2503 1196 3.0 15 5 2 9 22% 11150 105476 23604 65%
c v  0.96 29 352 0 2 451 33 2503 1158 3.0 15 5 2 9 22% 11150 105476 23604 65%
c w  0.98 29 352 0 2 451 33 2503 1153 3.0 15 5 2 9 22% 11150 105476 23604 65%
c x  0.99 29 352 0 2 451 33 2503 1153 3.0 15 5 2 9 22% 11151 105314 23604 65%
c =  1.06 29 352 0 2 451 33 2503 1153 3.0 15 5 2 9 22% 11443 105314 23458 64%
c d  1.07 29 352 0 2 451 33 2503 1153 3.0 15 5 2 9 22% 11106 105314 23458 64%
c f  1.09 29 352 0 2 451 33 2503 1153 3.0 15 5 2 9 22% 11494 104731 23652 65%
c -  1.38 29 307 0 3 688 39 3418 1700 3.9 21 5 2 9 25% 11519 104731 23652 65%
c -  1.55 29 380 0 4 855 36 5153 2812 3.7 19 5 2 8 23% 11616 104724 23652 65%
c -  2.18 29 387 0 5 1122 37 7153 4035 4.0 21 5 2 8 24% 11679 104723 23652 65%
c c  2.39 29 407 0 5 1165 37 7708 4510 4.0 21 5 2 8 24% 11716 104631 23627 65%
c d  2.40 29 407 0 5 1165 37 7708 4506 4.0 21 5 2 8 24% 11666 104631 23627 65%
c u  2.43 29 407 0 5 1165 37 7708 3583 4.0 21 5 2 8 24% 11683 104631 23627 65%
c v  2.46 29 407 0 5 1165 37 7708 3122 4.0 21 5 2 8 24% 11685 104631 23627 65%
c w  2.51 29 407 0 5 1165 37 7708 3117 4.0 21 5 2 8 24% 11685 104631 23627 65%
c x  2.55 29 407 0 5 1165 37 7708 3117 4.0 21 5 2 8 24% 11699 102672 23627 65%
c =  2.70 29 407 0 5 1165 37 7708 3117 4.0 21 5 2 8 24% 12677 102672 23138 63%
c
c  seconds   switched    rate       size/glue tier1    binary           remaining
c         MB  reductions  conflicts       size  tier2      irredundant
c           level  restarts    redundant    glue   trail           variables
c
c d  2.71 29 407 0 5 1165 37 7708 3100 4.0 21 5 2 8 24% 11581 102670 23135 63%
c t  2.74 29 407 0 5 1165 37 7708 3100 4.0 21 5 2 8 24% 11577 102670 23135 63%
c f  2.79 29 407 0 5 1165 37 7708 3100 4.0 21 5 2 8 24% 13700 99485 24197 66%
c u  2.90 29 407 0 5 1165 37 7708 2863 4.0 21 5 2 8 24% 13704 99485 24197 66%
c v  2.92 29 407 0 5 1165 37 7708 2773 4.0 21 5 2 8 24% 13704 99485 24197 66%
c w  2.96 29 407 0 5 1165 37 7708 2765 4.0 21 5 2 8 24% 13704 99485 24197 66%
c x  3.02 29 407 0 5 1165 37 7708 2765 4.0 21 5 2 8 24% 13779 94693 24197 66%
c =  3.19 29 407 0 5 1165 37 7708 2765 4.0 21 5 2 8 24% 14243 94693 23965 66%
c d  3.20 29 407 0 5 1165 37 7708 2760 4.0 21 5 2 8 24% 13732 94693 23965 66%
c t  3.23 29 407 0 5 1165 37 7708 2760 4.0 21 5 2 8 24% 13713 94693 23965 66%
c f  3.29 29 407 0 5 1165 37 7708 2760 4.0 21 5 2 8 24% 13718 94685 23968 66%
c -  3.93 29 423 0 6 1391 38 9389 3798 4.2 23 5 2 8 24% 13762 94685 23968 66%
c o  4.19 29 421 0 6 1492 39 10002 4353 4.4 24 6 2 8 25% 13777 94685 23968 66%
c -  4.93 29 390 0 7 1721 39 11838 5332 4.5 28 6 2 7 24% 13840 94674 23968 66%
c s  5.18 29 387 0 7 1772 38 12510 5887 4.6 28 6 2 7 24% 13874 93693 23968 66%
c e  5.31 29 387 0 7 1772 38 12510 5887 4.6 28 6 2 7 24% 11572 95311 22374 61%
c s  5.32 29 387 0 7 1772 38 12510 5887 4.6 28 6 2 7 24% 11575 94551 22374 61%
c e  5.34 29 387 0 7 1772 38 12510 5887 4.6 28 6 2 7 24% 11567 94559 22370 61%
c ^  5.34 29 387 0 7 1772 38 12510 5887 4.6 28 6 2 7 24% 11567 94559 22370 61%
c -  5.82 29 375 0 8 1901 36 14483 6273 4.5 28 6 2 6 24% 11636 94557 22370 61%
c
c  seconds   switched    rate        size/glue tier1    binary          remaining
c         MB  reductions   conflicts       size  tier2      irredundant
c           level  restarts     redundant    glue   trail          variables
c
c d  6.26 29 362 0 8 2029 35 15787 7350 4.4 28 6 2 6 25% 11416 94557 22205 61%
c u  6.31 29 362 0 8 2029 35 15787 5855 4.4 28 6 2 6 25% 11429 94557 22205 61%
c v  6.36 29 362 0 8 2029 35 15787 5133 4.4 28 6 2 6 25% 11430 94557 22205 61%
c w  6.47 29 362 0 8 2029 35 15787 5120 4.4 28 6 2 6 25% 11430 94557 22205 61%
c x  6.52 29 362 0 8 2029 35 15787 5120 4.4 28 6 2 6 25% 11450 94214 22205 61%
c =  6.79 29 362 0 8 2029 35 15787 5120 4.4 28 6 2 6 25% 13696 94214 21082 58%
c d  6.80 29 362 0 8 2029 35 15787 5040 4.4 28 6 2 6 25% 10976 94214 21082 58%
c t  6.83 29 362 0 8 2029 35 15787 5040 4.4 28 6 2 6 25% 10945 94214 21082 58%
c f  6.89 29 362 0 8 2029 35 15787 5040 4.4 28 6 2 6 25% 10955 94182 21092 58%
c u  7.00 29 362 0 8 2029 35 15787 4656 4.4 28 6 2 6 25% 10956 94182 21092 58%
c v  7.03 29 362 0 8 2029 35 15787 4539 4.4 28 6 2 6 25% 10957 94182 21092 58%
c w  7.15 29 362 0 8 2029 35 15787 4497 4.4 28 6 2 6 25% 10957 94182 21092 58%
c x  7.22 29 362 0 8 2029 35 15787 4492 4.4 28 6 2 6 25% 10992 91495 21092 58%
c =  7.47 29 362 0 8 2029 35 15787 4492 4.4 28 6 2 6 25% 12716 91491 20230 55%
c d  7.48 29 362 0 8 2029 35 15787 4449 4.4 28 6 2 6 25% 10759 91491 20230 55%
c t  7.50 29 362 0 8 2029 35 15787 4449 4.4 28 6 2 6 25% 10757 91491 20230 55%
c f  7.54 29 362 0 8 2029 35 15787 4449 4.4 28 6 2 6 25% 10765 91462 20240 55%
c -  7.82 29 373 0 9 2119 36 17311 5130 4.4 27 6 2 6 24% 10839 91455 20240 55%
c o  8.46 29 358 0 9 2344 35 20054 7583 4.2 26 6 2 6 24% 10888 91448 20240 55%
c -  8.63 29 355 0 10 2404 35 20311 6962 4.3 26 6 2 6 25% 10888 91448 20240 55%
c
c  seconds   switched     rate        size/glue tier1    binary          remaining
c         MB   reductions   conflicts       size  tier2      irredundant
c           level   restarts     redundant    glue   trail          variables
c
c -  9.01 29 353 0 11 2526 33 23473 8752 4.2 25 6 2 6 23% 10979 91444 20240 55%
c s  9.44 29 352 0 11 2668 33 25013 10066 4.2 25 6 2 6 23% 11021 89696 20240 55%
c e  9.59 29 352 0 11 2668 33 25013 10066 4.2 25 6 2 6 23% 9346 93752 17194 47%
c 2  9.59 29 352 0 11 2668 33 25013 10066 4.2 25 6 2 6 23% 9345 93752 17194 47%
c s  9.62 29 352 0 11 2668 33 25013 10066 4.2 25 6 2 6 23% 9380 88812 17194 47%
c e  9.67 29 352 0 11 2668 33 25013 10066 4.2 25 6 2 6 23% 9352 88860 17172 47%
c ^  9.67 29 352 0 11 2668 33 25013 10066 4.2 25 6 2 6 23% 9352 88860 17172 47%
c - 10.11 29 334 0 12 2776 32 26790 8203 4.1 24 6 2 6 23% 9378 88860 17172 47%
c d 10.21 29 333 0 12 2809 32 26914 8316 4.1 24 6 2 6 23% 9291 88860 17116 47%
c u 10.26 29 333 0 12 2809 32 26914 6614 4.1 24 6 2 6 23% 9308 88860 17116 47%
c v 10.31 29 333 0 12 2809 32 26914 5795 4.1 24 6 2 6 23% 9311 88860 17116 47%
c w 10.32 29 333 0 12 2809 32 26914 5779 4.1 24 6 2 6 23% 9311 88860 17116 47%
c x 10.42 29 333 0 12 2809 32 26914 5778 4.1 24 6 2 6 23% 9352 86278 17116 47%
c = 10.65 29 333 0 12 2809 32 26914 5778 4.1 24 6 2 6 23% 11242 86270 16171 44%
c d 10.66 29 333 0 12 2809 32 26914 5546 4.1 24 6 2 6 23% 9221 86270 16171 44%
c t 10.68 29 333 0 12 2809 32 26914 5546 4.1 24 6 2 6 23% 9190 86270 16171 44%
c f 10.76 29 333 0 12 2809 32 26914 5546 4.1 24 6 2 6 23% 9207 86140 16199 44%
c u 10.81 29 333 0 12 2809 32 26914 5099 4.1 24 6 2 6 23% 9208 86140 16199 44%
c v 10.84 29 333 0 12 2809 32 26914 5000 4.1 24 6 2 6 23% 9208 86140 16199 44%
c w 10.85 29 333 0 12 2809 32 26914 4997 4.1 24 6 2 6 23% 9208 86140 16199 44%
c
c  seconds   switched     rate        size/glue tier1    binary         remaining
c         MB   reductions   conflicts       size  tier2     irredundant
c           level   restarts     redundant    glue   trail         variables
c
c x 10.95 29 333 0 12 2809 32 26914 4996 4.1 24 6 2 6 23% 9221 78458 16199 44%
c = 11.16 29 333 0 12 2809 32 26914 4996 4.1 24 6 2 6 23% 9623 78458 15998 44%
c d 11.16 29 333 0 12 2809 32 26914 4991 4.1 24 6 2 6 23% 9220 78458 15998 44%
c t 11.18 29 333 0 12 2809 32 26914 4991 4.1 24 6 2 6 23% 9189 78458 15998 44%
c f 11.21 29 333 0 12 2809 32 26914 4991 4.1 24 6 2 6 23% 9197 78424 16006 44%
c - 11.84 29 307 0 13 3025 30 30254 7172 3.8 23 6 2 6 24% 9230 78424 16006 44%
c - 12.68 29 289 0 14 3376 29 33860 9259 3.7 23 6 2 6 25% 9275 78424 16006 44%
c - 13.44 29 284 0 15 3690 29 37601 11094 3.7 22 6 2 6 25% 9334 78423 16006 44%
c o 13.68 29 283 0 15 3789 28 40097 13230 3.6 22 6 2 6 24% 9416 78414 16006 44%
c c 13.99 29 280 0 15 3884 28 41248 14238 3.6 22 6 2 6 24% 9508 78078 15930 44%
c d 14.00 29 280 0 15 3884 28 41248 14124 3.6 22 6 2 6 24% 9293 78078 15888 44%
c u 14.07 29 280 0 15 3884 28 41248 12006 3.6 22 6 2 6 24% 9317 78078 15888 44%
c v 14.14 29 280 0 15 3884 28 41248 10536 3.6 22 6 2 6 24% 9320 78078 15888 44%
c w 14.19 29 280 0 15 3884 28 41248 10531 3.6 22 6 2 6 24% 9320 78078 15888 44%
c x 14.25 29 280 0 15 3884 28 41248 10529 3.6 22 6 2 6 24% 9320 77124 15888 44%
c = 14.53 29 280 0 15 3884 28 41248 10529 3.6 22 6 2 6 24% 10448 77124 15324 42%
c d 14.53 29 280 0 15 3884 28 41248 10296 3.6 22 6 2 6 24% 9200 77124 15324 42%
c t 14.55 29 280 0 15 3884 28 41248 10296 3.6 22 6 2 6 24% 9186 77124 15324 42%
c u 14.65 29 280 0 15 3884 28 41248 9631 3.6 22 6 2 6 24% 9188 77124 15324 42%
c v 14.71 29 280 0 15 3884 28 41248 9268 3.6 22 6 2 6 24% 9188 77124 15324 42%
c
c  seconds   switched     rate        size/glue tier1    binary         remaining
c         MB   reductions   conflicts       size  tier2     irredundant
c           level   restarts     redundant    glue   trail         variables
c
c w 14.81 29 280 0 15 3884 28 41248 9248 3.6 22 6 2 6 24% 9188 77124 15324 42%
c x 14.88 29 280 0 15 3884 28 41248 9248 3.6 22 6 2 6 24% 9188 74632 15324 42%
c = 15.14 29 280 0 15 3884 28 41248 9248 3.6 22 6 2 6 24% 9538 74632 15149 42%
c d 15.15 29 280 0 15 3884 28 41248 9170 3.6 22 6 2 6 24% 9174 74632 15149 42%
c t 15.16 29 280 0 15 3884 28 41248 9170 3.6 22 6 2 6 24% 9168 74632 15149 42%
c f 15.19 29 280 0 15 3884 28 41248 9170 3.6 22 6 2 6 24% 9173 74608 15154 42%
c - 15.26 29 279 0 16 3909 28 41476 8265 3.6 22 6 2 6 24% 9175 74608 15154 42%
c - 16.18 29 266 0 17 4352 28 45476 10522 3.5 22 6 2 5 25% 9225 74607 15154 42%
c - 16.97 29 265 0 18 4724 28 49599 12697 3.5 22 6 2 5 24% 9276 74605 15154 42%
c s 17.30 29 254 0 18 4882 27 52113 14725 3.4 22 6 2 5 24% 9319 73190 15154 42%
c e 17.42 29 254 0 18 4882 27 52113 14725 3.4 22 6 2 5 24% 7859 75945 14151 39%
c s 17.43 29 254 0 18 4882 27 52113 14725 3.4 22 6 2 5 24% 7882 75324 14151 39%
c e 17.44 29 254 0 18 4882 27 52113 14725 3.4 22 6 2 5 24% 7872 75337 14144 39%
c ^ 17.44 29 254 0 18 4882 27 52113 14725 3.4 22 6 2 5 24% 7872 75337 14144 39%
c - 17.95 29 249 0 19 5060 27 53844 11239 3.4 21 6 1 5 24% 7881 75336 14144 39%
c - 18.85 29 237 0 20 5400 26 58203 13867 3.3 21 6 2 5 25% 7911 75333 14144 39%
c c 19.04 29 235 0 20 5451 26 58892 14512 3.2 21 6 2 5 25% 7944 75182 14117 39%
c d 19.05 29 235 0 20 5451 26 58892 14452 3.2 21 6 2 5 25% 7890 75182 14117 39%
c u 19.13 29 235 0 20 5451 26 58892 12013 3.2 21 6 2 5 25% 7914 75182 14117 39%
c v 19.19 29 235 0 20 5451 26 58892 10660 3.2 21 6 2 5 25% 7915 75182 14117 39%
c
c  seconds   switched     rate         size/glue tier1    binary         remaining
c         MB   reductions   conflicts        size  tier2     irredundant
c           level   restarts      redundant    glue   trail         variables
c
c w 19.24 29 235 0 20 5451 26 58892 10464 3.2 21 6 2 5 25% 7916 75182 14117 39%
c x 19.38 29 235 0 20 5451 26 58892 10462 3.2 21 6 2 5 25% 7924 73989 14117 39%
c d 19.74 29 235 0 20 5451 26 58892 10443 3.2 21 6 2 5 25% 7914 73989 14112 39%
c t 19.76 29 235 0 20 5451 26 58892 10443 3.2 21 6 2 5 25% 7903 73989 14112 39%
c f 19.82 29 235 0 20 5451 26 58892 10443 3.2 21 6 2 5 25% 7907 73935 14121 39%
c c 19.88 29 235 0 20 5451 26 58892 10422 3.2 21 6 2 5 25% 7913 73911 14118 39%
c d 19.89 29 235 0 20 5451 26 58892 10422 3.2 21 6 2 5 25% 7907 73911 14118 39%
c u 19.94 29 235 0 20 5451 26 58892 10014 3.2 21 6 2 5 25% 7924 73911 14118 39%
c v 19.97 29 235 0 20 5451 26 58892 9783 3.2 21 6 2 5 25% 7924 73911 14118 39%
c w 20.01 29 235 0 20 5451 26 58892 9732 3.2 21 6 2 5 25% 7924 73911 14118 39%
c x 20.15 29 235 0 20 5451 26 58892 9726 3.2 21 6 2 5 25% 7944 73343 14118 39%
c d 20.16 29 235 0 20 5451 26 58892 9722 3.2 21 6 2 5 25% 7936 73343 14114 39%
c t 20.18 29 235 0 20 5451 26 58892 9722 3.2 21 6 2 5 25% 7930 73343 14114 39%
c - 20.86 29 228 0 21 5723 25 62675 11883 3.1 20 6 2 5 25% 7957 73341 14114 39%
c - 21.92 29 221 0 22 6171 25 67257 14436 3.0 19 6 2 5 25% 7987 73338 14114 39%
c o 22.68 29 215 0 22 6542 25 70099 17014 3.0 19 6 2 5 25% 8001 73336 14114 39%
c - 23.00 29 214 0 23 6681 25 71949 14991 3.0 19 6 1 5 25% 8020 73336 14114 39%
c - 23.86 29 210 0 24 7048 24 76744 15878 3.0 19 6 1 5 25% 8090 73332 14114 39%
c d 24.72 29 205 0 24 7503 24 79973 18667 3.0 19 6 1 5 25% 8017 73332 14060 39%
c u 24.79 29 205 0 24 7503 24 79973 16973 3.0 19 6 1 5 25% 8041 73332 14060 39%
c
c  seconds   switched     rate         size/glue tier1    binary         remaining
c         MB   reductions   conflicts        size  tier2     irredundant
c           level   restarts      redundant    glue   trail         variables
c
c v 24.90 29 205 0 24 7503 24 79973 14190 3.0 19 6 1 5 25% 8051 73332 14060 39%
c w 25.06 29 205 0 24 7503 24 79973 14171 3.0 19 6 1 5 25% 8051 73332 14060 39%
c x 25.15 29 205 0 24 7503 24 79973 14171 3.0 19 6 1 5 25% 8052 73089 14060 39%
c = 25.36 29 205 0 24 7503 24 79973 14171 3.0 19 6 1 5 25% 8474 73089 13849 38%
c d 25.37 29 205 0 24 7503 24 79973 13988 3.0 19 6 1 5 25% 7992 73089 13842 38%
c t 25.39 29 205 0 24 7503 24 79973 13988 3.0 19 6 1 5 25% 7983 73089 13842 38%
c f 25.41 29 205 0 24 7503 24 79973 13988 3.0 19 6 1 5 25% 7983 73083 13843 38%
c c 25.47 29 205 0 24 7503 24 79973 13964 3.0 19 6 1 5 25% 7998 73018 13835 38%
c d 25.48 29 205 0 24 7503 24 79973 13964 3.0 19 6 1 5 25% 7982 73018 13835 38%
c u 25.54 29 205 0 24 7503 24 79973 13473 3.0 19 6 1 5 25% 7987 73018 13835 38%
c v 25.60 29 205 0 24 7503 24 79973 12952 3.0 19 6 1 5 25% 7991 73018 13835 38%
c w 25.78 29 205 0 24 7503 24 79973 12579 3.0 19 6 1 5 25% 7991 73018 13835 38%
c x 25.90 29 205 0 24 7503 24 79973 12575 3.0 19 6 1 5 25% 8000 71686 13835 38%
c = 26.36 29 205 0 24 7503 24 79973 12575 3.0 19 6 1 5 25% 8476 71686 13597 37%
c d 26.36 29 205 0 24 7503 24 79973 12377 3.0 19 6 1 5 25% 7949 71686 13596 37%
c t 26.38 29 205 0 24 7503 24 79973 12377 3.0 19 6 1 5 25% 7922 71686 13596 37%
c f 26.40 29 205 0 24 7503 24 79973 12377 3.0 19 6 1 5 25% 7927 71661 13600 37%
c - 26.82 29 202 0 25 7676 24 81642 11738 3.0 19 6 1 5 25% 7931 71661 13600 37%
c - 27.98 29 195 0 26 8176 24 86642 14121 2.9 19 6 1 5 25% 7948 71660 13600 37%
c - 29.12 29 189 0 27 8699 23 91742 16235 2.9 19 7 1 5 25% 7977 71658 13600 37%
c
c  seconds   switched     rate         size/glue tier1    binary         remaining
c         MB   reductions   conflicts        size  tier2     irredundant
c           level   restarts      redundant    glue   trail         variables
c
c s 29.66 29 190 0 27 8945 23 95813 19668 2.9 19 6 1 5 25% 8032 70787 13600 37%
c e 29.80 29 190 0 27 8945 23 95813 19668 2.9 19 6 1 5 25% 5391 77772 12134 33%
c 2 29.80 29 190 0 27 8945 23 95813 19668 2.9 19 6 1 5 25% 5389 77772 12134 33%
c s 29.82 29 190 0 27 8945 23 95813 19668 2.9 19 6 1 5 25% 5413 77113 12134 33%
c e 29.84 29 190 0 27 8945 23 95813 19668 2.9 19 6 1 5 25% 5361 77274 12093 33%
c ^ 29.84 29 190 0 27 8945 23 95813 19668 2.9 19 6 1 5 25% 5361 77274 12093 33%
c - 30.26 29 189 0 28 9133 23 96940 13956 2.8 19 7 1 5 25% 5363 77274 12093 33%
c - 31.66 29 184 0 29 9913 23 102231 15842 2.8 19 7 1 5 26% 5401 77272 12093 33%
c d 32.09 29 182 0 29 10091 23 104619 17810 2.8 19 7 1 5 25% 5378 77271 12066 33%
c u 32.16 29 182 0 29 10091 23 104619 16024 2.8 19 7 1 5 25% 5391 77271 12066 33%
c v 32.25 29 182 0 29 10091 23 104619 13086 2.8 19 7 1 5 25% 5396 77271 12066 33%
c w 32.40 29 182 0 29 10091 23 104619 12737 2.8 19 7 1 5 25% 5396 77271 12066 33%
c x 32.53 29 182 0 29 10091 23 104619 12737 2.8 19 7 1 5 25% 5399 77098 12066 33%
c = 33.09 29 182 0 29 10091 23 104619 12737 2.8 19 7 1 5 25% 6147 76984 11679 32%
c d 33.09 29 182 0 29 10091 23 104619 12411 2.8 19 7 1 5 25% 5335 76984 11679 32%
c t 33.11 29 182 0 29 10091 23 104619 12411 2.8 19 7 1 5 25% 5268 76984 11679 32%
c f 33.20 29 182 0 29 10091 23 104619 12411 2.8 19 7 1 5 25% 5301 76788 11697 32%
c u 33.27 29 182 0 29 10091 23 104619 11870 2.8 19 7 1 5 25% 5307 76788 11697 32%
c v 33.33 29 182 0 29 10091 23 104619 11384 2.8 19 7 1 5 25% 5307 76788 11697 32%
c w 33.45 29 182 0 29 10091 23 104619 11290 2.8 19 7 1 5 25% 5307 76788 11697 32%
c
c  seconds   switched      rate          size/glue tier1    binary         remaining
c         MB   reductions    conflicts         size  tier2     irredundant
c           level   restarts        redundant    glue   trail         variables
c
c = 33.94 29 182 0 29 10091 23 104619 11290 2.8 19 7 1 5 25% 5309 76788 11696 32%
c d 33.95 29 182 0 29 10091 23 104619 11290 2.8 19 7 1 5 25% 5306 76788 11696 32%
c - 34.36 29 179 0 30 10380 23 107616 12054 2.8 18 7 1 5 26% 5312 76783 11696 32%
c o 34.76 29 177 0 30 10680 23 110103 14277 2.7 18 7 1 5 26% 5321 76782 11696 32%
c - 35.15 29 174 0 31 10942 23 113095 14486 2.7 18 7 1 5 26% 5334 76782 11696 32%
c - 35.73 29 169 0 32 11356 22 118662 16514 2.7 18 7 1 5 25% 5354 76781 11696 32%
c i 36.06 29 168 0 32 11581 22 120634 18352 2.7 18 7 1 5 25% 5359 76780 11693 32%
c - 36.55 29 168 0 33 11950 22 124318 18129 2.7 18 7 1 5 25% 5383 76780 11693 32%
c i 36.64 29 168 0 33 12039 22 125088 18787 2.7 18 7 1 5 25% 5396 76780 11692 32%
c i 36.74 29 168 0 33 12116 22 125790 19414 2.7 18 7 1 5 26% 5400 76780 11691 32%
c i 36.93 29 167 0 33 12247 22 127182 20705 2.7 18 7 1 5 26% 5407 76780 11690 32%
c i 37.06 29 167 0 33 12341 22 128196 21627 2.7 18 7 1 5 26% 5413 76780 11689 32%
c i 37.21 29 167 0 33 12449 22 129134 22513 2.7 18 7 1 5 26% 5417 76779 11688 32%
c i 37.30 29 166 0 33 12513 22 129600 22949 2.7 19 7 1 5 26% 5420 76779 11687 32%
c - 37.42 29 166 0 34 12593 22 130062 19575 2.7 19 7 1 5 26% 5403 76779 11687 32%
c i 37.64 29 166 0 34 12733 22 131791 21034 2.7 19 7 1 5 26% 5428 76778 11686 32%
c c 37.85 29 166 0 34 12875 22 132882 22060 2.7 19 7 1 5 26% 5449 76538 11643 32%
c d 37.86 29 166 0 34 12875 22 132882 21795 2.7 19 7 1 5 26% 5398 76503 11643 32%
c d 37.86 29 166 0 34 12875 22 132882 21771 2.7 19 7 1 5 26% 5364 76503 11626 32%
c u 37.91 29 166 0 34 12875 22 132882 19575 2.7 19 7 1 5 26% 5375 76503 11626 32%
c
c  seconds   switched      rate          size/glue tier1    binary         remaining
c         MB   reductions    conflicts         size  tier2     irredundant
c           level   restarts        redundant    glue   trail         variables
c
c v 37.99 29 166 0 34 12875 22 132882 16050 2.7 19 7 1 5 26% 5385 76503 11626 32%
c w 38.09 29 166 0 34 12875 22 132882 16010 2.7 19 7 1 5 26% 5385 76503 11626 32%
c x 38.16 29 166 0 34 12875 22 132882 16009 2.7 19 7 1 5 26% 5385 76491 11626 32%
c = 38.61 29 166 0 34 12875 22 132882 16009 2.7 19 7 1 5 26% 5445 76491 11596 32%
c d 38.61 29 166 0 34 12875 22 132882 15954 2.7 19 7 1 5 26% 5365 76491 11593 32%
c t 38.62 29 166 0 34 12875 22 132882 15954 2.7 19 7 1 5 26% 5352 76491 11593 32%
c f 38.63 29 166 0 34 12875 22 132882 15954 2.7 19 7 1 5 26% 5356 76467 11595 32%
c u 38.68 29 166 0 34 12875 22 132882 15453 2.7 19 7 1 5 26% 5362 76467 11595 32%
c v 38.73 29 166 0 34 12875 22 132882 14831 2.7 19 7 1 5 26% 5362 76467 11595 32%
c w 38.88 29 166 0 34 12875 22 132882 14419 2.7 19 7 1 5 26% 5362 76467 11595 32%
c = 39.36 29 166 0 34 12875 22 132882 14419 2.7 19 7 1 5 26% 5416 76419 11562 32%
c d 39.37 29 166 0 34 12875 22 132882 14348 2.7 19 7 1 5 26% 5353 76419 11562 32%
c t 39.38 29 166 0 34 12875 22 132882 14348 2.7 19 7 1 5 26% 5340 76419 11562 32%
c i 39.60 29 165 0 34 12984 22 134355 15724 2.7 19 7 1 5 26% 5346 76415 11561 32%
c i 39.64 29 164 0 34 13010 22 134894 16195 2.7 19 7 1 5 26% 5346 76415 11560 32%
c i 39.70 29 164 0 34 13047 22 135557 16803 2.7 19 7 1 5 26% 5354 76415 11559 32%
c - 39.74 29 163 0 35 13067 22 135892 14416 2.7 19 7 1 5 26% 5339 76415 11559 32%
c i 39.78 29 163 0 35 13103 22 136121 14629 2.7 19 7 1 5 26% 5342 76412 11558 32%
c i 39.88 29 162 0 35 13197 22 137562 15907 2.6 19 7 1 5 26% 5352 76412 11557 32%
c - 40.16 29 158 0 36 13403 21 141810 16452 2.6 18 7 1 5 25% 5372 76412 11557 32%
c
c  seconds   switched      rate          size/glue tier1    binary         remaining
c         MB   reductions    conflicts         size  tier2     irredundant
c           level   restarts        redundant    glue   trail         variables
c
c i 40.23 29 157 0 36 13484 21 142909 17363 2.6 18 7 1 5 25% 5384 76410 11556 32%
c i 40.57 29 153 0 36 13816 20 147567 21218 2.6 18 7 1 5 25% 5442 76410 11555 32%
c - 40.58 29 152 0 37 13818 20 147811 17731 2.6 18 7 1 5 25% 5434 76410 11555 32%
c i 40.93 29 149 0 37 14189 20 152077 21483 2.6 18 7 1 5 24% 5484 76408 11554 32%
c i 41.03 29 148 0 37 14294 20 153144 22404 2.6 18 7 1 5 24% 5500 76408 11553 32%
c - 41.10 29 148 0 38 14360 20 153894 19093 2.6 18 7 1 5 24% 5513 76408 11553 32%
c s 41.34 29 145 0 38 14549 19 157914 22568 2.6 18 7 1 5 24% 5559 74569 11553 32%
c e 41.46 29 145 0 38 14549 19 157914 22568 2.6 18 7 1 5 24% 2998 85971 9901 27%
c 2 41.46 29 145 0 38 14549 19 157914 22568 2.6 18 7 1 5 24% 2997 85971 9901 27%
c s 41.49 29 145 0 38 14549 19 157914 22568 2.6 18 7 1 5 24% 3026 84325 9901 27%
c e 41.51 29 145 0 38 14549 19 157914 22568 2.6 18 7 1 5 24% 2960 84618 9830 27%
c ^ 41.51 29 145 0 38 14549 19 157914 22568 2.6 18 7 1 5 24% 2960 84618 9830 27%
c - 41.67 29 144 0 39 14708 19 160058 12728 2.6 18 7 1 5 23% 2969 84617 9830 27%
c o 41.68 29 144 0 39 14711 19 160113 12779 2.6 18 7 1 5 23% 2969 84617 9830 27%
c i 41.76 29 143 0 39 14824 19 161167 13673 2.6 18 7 1 5 23% 2980 84616 9829 27%
c i 41.82 29 142 0 39 14876 19 162377 14785 2.6 18 7 1 5 23% 2985 84616 9828 27%
c i 41.93 29 141 0 39 14981 19 163892 16131 2.5 18 7 1 5 23% 2997 84616 9827 27%
c c 42.03 29 141 0 39 15078 19 164877 17007 2.5 18 7 1 5 23% 3016 84363 9795 27%
c d 42.03 29 141 0 39 15078 19 164877 16626 2.5 18 7 1 5 23% 2960 84355 9795 27%
c d 42.03 29 141 0 39 15078 19 164877 16622 2.5 18 7 1 5 23% 2952 84355 9791 27%
c
c  seconds   switched      rate          size/glue tier1    binary        remaining
c         MB   reductions    conflicts         size  tier2     irredundant
c           level   restarts        redundant    glue   trail        variables
c
c u 42.07 29 141 0 39 15078 19 164877 14813 2.5 18 7 1 5 23% 2960 84355 9791 27%
c v 42.12 29 141 0 39 15078 19 164877 12411 2.5 18 7 1 5 23% 2967 84355 9791 27%
c w 42.23 29 141 0 39 15078 19 164877 12122 2.5 18 7 1 5 23% 2967 84355 9791 27%
c = 42.54 29 141 0 39 15078 19 164877 12122 2.5 18 7 1 5 23% 3003 84316 9771 27%
c d 42.54 29 141 0 39 15078 19 164877 11908 2.5 18 7 1 5 23% 2958 84316 9771 27%
c t 42.55 29 141 0 39 15078 19 164877 11908 2.5 18 7 1 5 23% 2944 84316 9771 27%
c f 42.62 29 141 0 39 15078 19 164877 11908 2.5 18 7 1 5 23% 2980 83903 9790 27%
c u 42.69 29 141 0 39 15078 19 164877 11633 2.5 18 7 1 5 23% 2986 83903 9790 27%
c v 42.72 29 141 0 39 15078 19 164877 11192 2.5 18 7 1 5 23% 2986 83903 9790 27%
c w 42.80 29 141 0 39 15078 19 164877 10925 2.5 18 7 1 5 23% 2986 83903 9790 27%
c x 42.87 29 141 0 39 15078 19 164877 10911 2.5 18 7 1 5 23% 3008 81992 9790 27%
c = 43.18 29 141 0 39 15078 19 164877 10911 2.5 18 7 1 5 23% 3027 81955 9777 27%
c d 43.18 29 141 0 39 15078 19 164877 10835 2.5 18 7 1 5 23% 3009 81955 9777 27%
c t 43.19 29 141 0 39 15078 19 164877 10835 2.5 18 7 1 5 23% 2994 81955 9777 27%
c - 43.30 29 139 0 40 15189 19 166302 10216 2.5 18 7 1 5 23% 3001 81955 9777 27%
c i 43.35 29 138 0 40 15255 18 167862 11566 2.5 18 7 1 5 23% 3014 81953 9775 27%
c i 43.35 29 138 0 40 15259 18 168136 11779 2.5 18 7 1 5 23% 3023 81951 9773 27%
c i 43.40 29 136 0 40 15348 18 169816 13242 2.5 18 7 1 5 22% 3056 81948 9772 27%
c i 43.41 29 135 0 40 15353 18 170334 13652 2.5 18 7 1 5 22% 3063 81948 9767 27%
c i 43.41 29 135 0 40 15353 18 170341 13658 2.5 18 7 1 5 22% 3063 81948 9766 27%
c
c  seconds   switched      rate          size/glue tier1    binary        remaining
c         MB   reductions    conflicts         size  tier2     irredundant
c           level   restarts        redundant    glue   trail        variables
c
c i 43.41 29 135 0 40 15353 18 170384 13696 2.5 18 7 1 5 22% 3065 81947 9765 27%
c i 43.41 29 135 0 40 15353 18 170390 13696 2.5 18 7 1 5 22% 3068 81947 9764 27%
c i 43.41 29 135 0 40 15353 18 170431 13719 2.5 18 7 1 5 22% 3072 81946 9761 27%
c i 43.41 29 135 0 40 15353 18 170434 13719 2.5 18 7 1 5 22% 3074 81946 9760 27%
c } 43.41 29 135 0 40 15353 18 170438 13719 2.5 18 7 1 5 22% 3075 81945 9716 27%
c 0 43.41 29 135 0 40 15353 18 170438 13719 2.5 18 7 1 5 22% 3075 81945 9716 27%
c
c ---- [ result ] ------------------------------------------------------------
c
s UNSATISFIABLE
c
c ---- [ profiling ] ---------------------------------------------------------
c
c          29.52   68.00 %  search
c          29.52   68.00 %  focused
c          13.54   31.18 %  simplify
c          12.73   29.32 %  probe
c           5.59   12.87 %  sweep
c           4.78   11.00 %  vivify
c           1.02    2.34 %  eliminate
c           0.89    2.06 %  factor
c           0.65    1.51 %  congruence
c           0.59    1.35 %  substitute
c           0.31    0.70 %  preprocess
c           0.24    0.55 %  reduce
c           0.18    0.42 %  subsume
c           0.15    0.35 %  transitive
c           0.09    0.21 %  fastel
c           0.08    0.18 %  backbone
c           0.03    0.07 %  lucky
c           0.02    0.05 %  parse
c =============================================
c          43.41  100.00 %  total
c
c ---- [ statistics ] --------------------------------------------------------
c
c chronological:                         5074                3 %  conflicts
c conflicts:                           170438             3925.81 per second
c congruent:                             4000               11 %  variables
c decisions:                          3343899               19.62 per conflict
c eliminated:                           20000               55 %  variables
c factored:                              3750               10 %  variables
c fast_eliminated:                      11094               55 %  eliminated
c fast_strengthened:                        5                0 %  per strengthened
c fast_subsumed:                           73                0 %  per subsumed
c iterations:                              30                0 %  variables
c propagations:                     144113321          3319454    per second
c reductions:                              40             4261    interval
c reordered:                                6            28406    interval
c restarts:                             15353               11    interval
c strengthened:                          5616                0 %  checks
c substituted:                          10413               29 %  variables
c subsumed:                             15374                0 %  checks
c switched:                                 0                0    interval
c vivified:                             84721               12 %  checks
c
c ---- [ glue usage ] --------------------------------------------------------
c
c focused glue 1 used 247441 clauses 57.54% accumulated 57.54% tier1
c focused glue 2 used  90431 clauses 21.03% accumulated 78.57%
c focused glue 3 used  28709 clauses  6.68% accumulated 85.25%
c focused glue 4 used  16551 clauses  3.85% accumulated 89.10%
c focused glue 5 used  10792 clauses  2.51% accumulated 91.61% tier2
c
c ---- [ resources ] ---------------------------------------------------------
c
c maximum-resident-set-size:         31014912 bytes         30 MB
c process-time:                            43s              43.41 seconds
c
c ---- [ shutting down ] -----------------------------------------------------
c
c exit 20
